p cnf 162 734
c p weight 68 0 0
c p weight -68 1 0
c p weight 69 1 0
c p weight -69 1 0
c p weight 159 -1 0
c p weight -159 1 0
c p weight 162 0.5 0
162 0
-63 0
-61 0
-59 0
-57 0
-55 0
-53 0
-51 0
-49 0
-47 0
-45 0
-43 0
-41 0
-39 0
-37 0
-35 0
-33 0
-31 0
-29 0
-27 0
-25 0
-23 0
-21 0
-19 0
-17 0
-15 0
-13 0
-11 0
-9 0
-7 0
-5 0
-3 0
-1 0
64 -63 61 0
64 -63 62 0
-64 63 61 0
-64 63 62 0
64 63 -61 -62 0
-64 -63 -61 -62 0
65 61 -62 0
65 -61 62 0
-65 61 62 0
-65 -61 -62 0
66 67 -64 0
66 -64 65 0
-66 67 64 0
-66 64 65 0
66 -64 -61 0
-66 64 -61 0
66 -67 64 61 -65 0
-66 -67 -64 61 -65 0
67 -61 65 0
-67 61 65 0
-68 65 0
67 -68 -61 0
-67 -68 61 0
67 68 61 -65 0
-67 68 -61 -65 0
-69 65 0
67 -69 61 0
-67 -69 -61 0
67 69 -61 -65 0
-67 69 61 -65 0
70 -66 67 0
70 -66 65 0
-70 66 67 0
-70 66 65 0
70 66 -67 -65 0
-70 -66 -67 -65 0
71 67 -65 0
71 -67 65 0
-71 67 65 0
-71 -67 -65 0
72 -70 67 0
72 -70 60 0
-72 70 67 0
-72 70 60 0
72 -70 59 -71 0
72 -70 -59 71 0
-72 70 59 -71 0
-72 70 -59 71 0
72 70 -67 59 71 -60 0
72 70 -67 -59 -71 -60 0
-72 -70 -67 59 71 -60 0
-72 -70 -67 -59 -71 -60 0
74 67 -59 0
74 -67 59 0
-74 67 59 0
-74 -67 -59 0
73 71 -60 0
73 -71 60 0
-73 71 60 0
-73 -71 -60 0
75 -72 74 0
75 -72 58 0
-75 72 74 0
-75 72 58 0
75 -72 57 -60 0
75 -72 -57 60 0
-75 72 57 -60 0
-75 72 -57 60 0
75 72 -74 57 60 -58 0
75 72 -74 -57 -60 -58 0
-75 -72 -74 57 60 -58 0
-75 -72 -74 -57 -60 -58 0
77 74 -57 0
77 -74 57 0
-77 74 57 0
-77 -74 -57 0
76 60 -58 0
76 -60 58 0
-76 60 58 0
-76 -60 -58 0
78 -75 77 0
78 -75 56 0
-78 75 77 0
-78 75 56 0
78 -75 55 -58 0
78 -75 -55 58 0
-78 75 55 -58 0
-78 75 -55 58 0
78 75 -77 55 58 -56 0
78 75 -77 -55 -58 -56 0
-78 -75 -77 55 58 -56 0
-78 -75 -77 -55 -58 -56 0
80 77 -55 0
80 -77 55 0
-80 77 55 0
-80 -77 -55 0
79 58 -56 0
79 -58 56 0
-79 58 56 0
-79 -58 -56 0
81 -78 80 0
81 -78 54 0
-81 78 80 0
-81 78 54 0
81 -78 53 -56 0
81 -78 -53 56 0
-81 78 53 -56 0
-81 78 -53 56 0
81 78 -80 53 56 -54 0
81 78 -80 -53 -56 -54 0
-81 -78 -80 53 56 -54 0
-81 -78 -80 -53 -56 -54 0
83 80 -53 0
83 -80 53 0
-83 80 53 0
-83 -80 -53 0
82 56 -54 0
82 -56 54 0
-82 56 54 0
-82 -56 -54 0
84 -81 83 0
84 -81 52 0
-84 81 83 0
-84 81 52 0
84 -81 51 -54 0
84 -81 -51 54 0
-84 81 51 -54 0
-84 81 -51 54 0
84 81 -83 51 54 -52 0
84 81 -83 -51 -54 -52 0
-84 -81 -83 51 54 -52 0
-84 -81 -83 -51 -54 -52 0
86 83 -51 0
86 -83 51 0
-86 83 51 0
-86 -83 -51 0
85 54 -52 0
85 -54 52 0
-85 54 52 0
-85 -54 -52 0
87 -84 86 0
87 -84 50 0
-87 84 86 0
-87 84 50 0
87 -84 49 -52 0
87 -84 -49 52 0
-87 84 49 -52 0
-87 84 -49 52 0
87 84 -86 49 52 -50 0
87 84 -86 -49 -52 -50 0
-87 -84 -86 49 52 -50 0
-87 -84 -86 -49 -52 -50 0
89 86 -49 0
89 -86 49 0
-89 86 49 0
-89 -86 -49 0
88 52 -50 0
88 -52 50 0
-88 52 50 0
-88 -52 -50 0
90 -87 89 0
90 -87 48 0
-90 87 89 0
-90 87 48 0
90 -87 47 -50 0
90 -87 -47 50 0
-90 87 47 -50 0
-90 87 -47 50 0
90 87 -89 47 50 -48 0
90 87 -89 -47 -50 -48 0
-90 -87 -89 47 50 -48 0
-90 -87 -89 -47 -50 -48 0
92 89 -47 0
92 -89 47 0
-92 89 47 0
-92 -89 -47 0
91 50 -48 0
91 -50 48 0
-91 50 48 0
-91 -50 -48 0
93 -90 92 0
93 -90 46 0
-93 90 92 0
-93 90 46 0
93 -90 45 -48 0
93 -90 -45 48 0
-93 90 45 -48 0
-93 90 -45 48 0
93 90 -92 45 48 -46 0
93 90 -92 -45 -48 -46 0
-93 -90 -92 45 48 -46 0
-93 -90 -92 -45 -48 -46 0
95 92 -45 0
95 -92 45 0
-95 92 45 0
-95 -92 -45 0
94 48 -46 0
94 -48 46 0
-94 48 46 0
-94 -48 -46 0
96 -93 95 0
96 -93 44 0
-96 93 95 0
-96 93 44 0
96 -93 43 -46 0
96 -93 -43 46 0
-96 93 43 -46 0
-96 93 -43 46 0
96 93 -95 43 46 -44 0
96 93 -95 -43 -46 -44 0
-96 -93 -95 43 46 -44 0
-96 -93 -95 -43 -46 -44 0
98 95 -43 0
98 -95 43 0
-98 95 43 0
-98 -95 -43 0
97 46 -44 0
97 -46 44 0
-97 46 44 0
-97 -46 -44 0
99 -96 98 0
99 -96 42 0
-99 96 98 0
-99 96 42 0
99 -96 41 -44 0
99 -96 -41 44 0
-99 96 41 -44 0
-99 96 -41 44 0
99 96 -98 41 44 -42 0
99 96 -98 -41 -44 -42 0
-99 -96 -98 41 44 -42 0
-99 -96 -98 -41 -44 -42 0
101 98 -41 0
101 -98 41 0
-101 98 41 0
-101 -98 -41 0
100 44 -42 0
100 -44 42 0
-100 44 42 0
-100 -44 -42 0
102 -99 101 0
102 -99 40 0
-102 99 101 0
-102 99 40 0
102 -99 39 -42 0
102 -99 -39 42 0
-102 99 39 -42 0
-102 99 -39 42 0
102 99 -101 39 42 -40 0
102 99 -101 -39 -42 -40 0
-102 -99 -101 39 42 -40 0
-102 -99 -101 -39 -42 -40 0
104 101 -39 0
104 -101 39 0
-104 101 39 0
-104 -101 -39 0
103 42 -40 0
103 -42 40 0
-103 42 40 0
-103 -42 -40 0
105 -102 104 0
105 -102 38 0
-105 102 104 0
-105 102 38 0
105 -102 37 -40 0
105 -102 -37 40 0
-105 102 37 -40 0
-105 102 -37 40 0
105 102 -104 37 40 -38 0
105 102 -104 -37 -40 -38 0
-105 -102 -104 37 40 -38 0
-105 -102 -104 -37 -40 -38 0
107 104 -37 0
107 -104 37 0
-107 104 37 0
-107 -104 -37 0
106 40 -38 0
106 -40 38 0
-106 40 38 0
-106 -40 -38 0
108 -105 107 0
108 -105 36 0
-108 105 107 0
-108 105 36 0
108 -105 35 -38 0
108 -105 -35 38 0
-108 105 35 -38 0
-108 105 -35 38 0
108 105 -107 35 38 -36 0
108 105 -107 -35 -38 -36 0
-108 -105 -107 35 38 -36 0
-108 -105 -107 -35 -38 -36 0
110 107 -35 0
110 -107 35 0
-110 107 35 0
-110 -107 -35 0
109 38 -36 0
109 -38 36 0
-109 38 36 0
-109 -38 -36 0
111 -108 110 0
111 -108 34 0
-111 108 110 0
-111 108 34 0
111 -108 33 -36 0
111 -108 -33 36 0
-111 108 33 -36 0
-111 108 -33 36 0
111 108 -110 33 36 -34 0
111 108 -110 -33 -36 -34 0
-111 -108 -110 33 36 -34 0
-111 -108 -110 -33 -36 -34 0
113 110 -33 0
113 -110 33 0
-113 110 33 0
-113 -110 -33 0
112 36 -34 0
112 -36 34 0
-112 36 34 0
-112 -36 -34 0
114 -111 113 0
114 -111 32 0
-114 111 113 0
-114 111 32 0
114 -111 31 -34 0
114 -111 -31 34 0
-114 111 31 -34 0
-114 111 -31 34 0
114 111 -113 31 34 -32 0
114 111 -113 -31 -34 -32 0
-114 -111 -113 31 34 -32 0
-114 -111 -113 -31 -34 -32 0
116 113 -31 0
116 -113 31 0
-116 113 31 0
-116 -113 -31 0
115 34 -32 0
115 -34 32 0
-115 34 32 0
-115 -34 -32 0
117 -114 116 0
117 -114 30 0
-117 114 116 0
-117 114 30 0
117 -114 29 -32 0
117 -114 -29 32 0
-117 114 29 -32 0
-117 114 -29 32 0
117 114 -116 29 32 -30 0
117 114 -116 -29 -32 -30 0
-117 -114 -116 29 32 -30 0
-117 -114 -116 -29 -32 -30 0
119 116 -29 0
119 -116 29 0
-119 116 29 0
-119 -116 -29 0
118 32 -30 0
118 -32 30 0
-118 32 30 0
-118 -32 -30 0
120 -117 119 0
120 -117 28 0
-120 117 119 0
-120 117 28 0
120 -117 27 -30 0
120 -117 -27 30 0
-120 117 27 -30 0
-120 117 -27 30 0
120 117 -119 27 30 -28 0
120 117 -119 -27 -30 -28 0
-120 -117 -119 27 30 -28 0
-120 -117 -119 -27 -30 -28 0
122 119 -27 0
122 -119 27 0
-122 119 27 0
-122 -119 -27 0
121 30 -28 0
121 -30 28 0
-121 30 28 0
-121 -30 -28 0
123 -120 122 0
123 -120 26 0
-123 120 122 0
-123 120 26 0
123 -120 25 -28 0
123 -120 -25 28 0
-123 120 25 -28 0
-123 120 -25 28 0
123 120 -122 25 28 -26 0
123 120 -122 -25 -28 -26 0
-123 -120 -122 25 28 -26 0
-123 -120 -122 -25 -28 -26 0
125 122 -25 0
125 -122 25 0
-125 122 25 0
-125 -122 -25 0
124 28 -26 0
124 -28 26 0
-124 28 26 0
-124 -28 -26 0
126 -123 125 0
126 -123 24 0
-126 123 125 0
-126 123 24 0
126 -123 23 -26 0
126 -123 -23 26 0
-126 123 23 -26 0
-126 123 -23 26 0
126 123 -125 23 26 -24 0
126 123 -125 -23 -26 -24 0
-126 -123 -125 23 26 -24 0
-126 -123 -125 -23 -26 -24 0
128 125 -23 0
128 -125 23 0
-128 125 23 0
-128 -125 -23 0
127 26 -24 0
127 -26 24 0
-127 26 24 0
-127 -26 -24 0
129 -126 128 0
129 -126 22 0
-129 126 128 0
-129 126 22 0
129 -126 21 -24 0
129 -126 -21 24 0
-129 126 21 -24 0
-129 126 -21 24 0
129 126 -128 21 24 -22 0
129 126 -128 -21 -24 -22 0
-129 -126 -128 21 24 -22 0
-129 -126 -128 -21 -24 -22 0
131 128 -21 0
131 -128 21 0
-131 128 21 0
-131 -128 -21 0
130 24 -22 0
130 -24 22 0
-130 24 22 0
-130 -24 -22 0
132 -129 131 0
132 -129 20 0
-132 129 131 0
-132 129 20 0
132 -129 19 -22 0
132 -129 -19 22 0
-132 129 19 -22 0
-132 129 -19 22 0
132 129 -131 19 22 -20 0
132 129 -131 -19 -22 -20 0
-132 -129 -131 19 22 -20 0
-132 -129 -131 -19 -22 -20 0
134 131 -19 0
134 -131 19 0
-134 131 19 0
-134 -131 -19 0
133 22 -20 0
133 -22 20 0
-133 22 20 0
-133 -22 -20 0
135 -132 134 0
135 -132 18 0
-135 132 134 0
-135 132 18 0
135 -132 17 -20 0
135 -132 -17 20 0
-135 132 17 -20 0
-135 132 -17 20 0
135 132 -134 17 20 -18 0
135 132 -134 -17 -20 -18 0
-135 -132 -134 17 20 -18 0
-135 -132 -134 -17 -20 -18 0
137 134 -17 0
137 -134 17 0
-137 134 17 0
-137 -134 -17 0
136 20 -18 0
136 -20 18 0
-136 20 18 0
-136 -20 -18 0
138 -135 137 0
138 -135 16 0
-138 135 137 0
-138 135 16 0
138 -135 15 -18 0
138 -135 -15 18 0
-138 135 15 -18 0
-138 135 -15 18 0
138 135 -137 15 18 -16 0
138 135 -137 -15 -18 -16 0
-138 -135 -137 15 18 -16 0
-138 -135 -137 -15 -18 -16 0
140 137 -15 0
140 -137 15 0
-140 137 15 0
-140 -137 -15 0
139 18 -16 0
139 -18 16 0
-139 18 16 0
-139 -18 -16 0
141 -138 140 0
141 -138 14 0
-141 138 140 0
-141 138 14 0
141 -138 13 -16 0
141 -138 -13 16 0
-141 138 13 -16 0
-141 138 -13 16 0
141 138 -140 13 16 -14 0
141 138 -140 -13 -16 -14 0
-141 -138 -140 13 16 -14 0
-141 -138 -140 -13 -16 -14 0
143 140 -13 0
143 -140 13 0
-143 140 13 0
-143 -140 -13 0
142 16 -14 0
142 -16 14 0
-142 16 14 0
-142 -16 -14 0
144 -141 143 0
144 -141 12 0
-144 141 143 0
-144 141 12 0
144 -141 11 -14 0
144 -141 -11 14 0
-144 141 11 -14 0
-144 141 -11 14 0
144 141 -143 11 14 -12 0
144 141 -143 -11 -14 -12 0
-144 -141 -143 11 14 -12 0
-144 -141 -143 -11 -14 -12 0
146 143 -11 0
146 -143 11 0
-146 143 11 0
-146 -143 -11 0
145 14 -12 0
145 -14 12 0
-145 14 12 0
-145 -14 -12 0
147 -144 146 0
147 -144 10 0
-147 144 146 0
-147 144 10 0
147 -144 9 -12 0
147 -144 -9 12 0
-147 144 9 -12 0
-147 144 -9 12 0
147 144 -146 9 12 -10 0
147 144 -146 -9 -12 -10 0
-147 -144 -146 9 12 -10 0
-147 -144 -146 -9 -12 -10 0
149 146 -9 0
149 -146 9 0
-149 146 9 0
-149 -146 -9 0
148 12 -10 0
148 -12 10 0
-148 12 10 0
-148 -12 -10 0
150 -147 149 0
150 -147 8 0
-150 147 149 0
-150 147 8 0
150 -147 7 -10 0
150 -147 -7 10 0
-150 147 7 -10 0
-150 147 -7 10 0
150 147 -149 7 10 -8 0
150 147 -149 -7 -10 -8 0
-150 -147 -149 7 10 -8 0
-150 -147 -149 -7 -10 -8 0
152 149 -7 0
152 -149 7 0
-152 149 7 0
-152 -149 -7 0
151 10 -8 0
151 -10 8 0
-151 10 8 0
-151 -10 -8 0
153 -150 152 0
153 -150 6 0
-153 150 152 0
-153 150 6 0
153 -150 5 -8 0
153 -150 -5 8 0
-153 150 5 -8 0
-153 150 -5 8 0
153 150 -152 5 8 -6 0
153 150 -152 -5 -8 -6 0
-153 -150 -152 5 8 -6 0
-153 -150 -152 -5 -8 -6 0
155 152 -5 0
155 -152 5 0
-155 152 5 0
-155 -152 -5 0
154 8 -6 0
154 -8 6 0
-154 8 6 0
-154 -8 -6 0
156 -153 155 0
156 -153 4 0
-156 153 155 0
-156 153 4 0
156 -153 3 -6 0
156 -153 -3 6 0
-156 153 3 -6 0
-156 153 -3 6 0
156 153 -155 3 6 -4 0
156 153 -155 -3 -6 -4 0
-156 -153 -155 3 6 -4 0
-156 -153 -155 -3 -6 -4 0
158 155 -3 0
158 -155 3 0
-158 155 3 0
-158 -155 -3 0
157 6 -4 0
157 -6 4 0
-157 6 4 0
-157 -6 -4 0
159 -156 158 0
159 -156 2 0
-159 156 158 0
-159 156 2 0
159 -156 1 -4 0
159 -156 -1 4 0
-159 156 1 -4 0
-159 156 -1 4 0
159 156 -158 1 4 -2 0
159 156 -158 -1 -4 -2 0
-159 -156 -158 1 4 -2 0
-159 -156 -158 -1 -4 -2 0
161 158 -1 0
161 -158 1 0
-161 158 1 0
-161 -158 -1 0
160 4 -2 0
160 -4 2 0
-160 4 2 0
-160 -4 -2 0
-161 0
-158 0
-160 0
-155 0
-157 0
-152 0
-154 0
-149 0
-151 0
-146 0
-148 0
-143 0
-145 0
-140 0
-142 0
-137 0
-139 0
-134 0
-136 0
-131 0
-133 0
-128 0
-130 0
-125 0
-127 0
-122 0
-124 0
-119 0
-121 0
-116 0
-118 0
-113 0
-115 0
-110 0
-112 0
-107 0
-109 0
-104 0
-106 0
-101 0
-103 0
-98 0
-100 0
-95 0
-97 0
-92 0
-94 0
-89 0
-91 0
-86 0
-88 0
-83 0
-85 0
-80 0
-82 0
-77 0
-79 0
-74 0
-76 0
-67 0
-73 0
